NAME : ch130.opt.tour
COMMENT : Tour result for ch130.tsp (6255.0)
TYPE : TOUR
DIMENSION : 130
TOUR_SECTION
43
104
127
107
70
97
7
26
88
86
69
64
124
129
61
109
76
11
5
45
16
128
105
112
62
115
28
66
85
125
90
78
121
59
30
126
33
21
18
8
108
114
3
83
117
39
71
41
1
130
50
2
118
80
46
20
93
4
35
54
17
34
31
27
19
100
116
24
15
29
89
94
77
103
81
12
87
95
79
38
106
58
49
53
120
60
51
42
44
40
47
37
22
23
55
122
96
13
67
14
10
102
6
91
72
92
73
99
74
75
52
65
56
9
57
82
101
123
111
119
84
36
32
113
25
48
98
110
68
63
-1
EOF